Running for instance ./models/rc203.txt
Generating routes...
Execution time:  2.98723  seconds
Academic license - for non-commercial use only
Warning: constraint name "Cliente esta na rota x1" has a space
Optimize a model with 26 rows, 10000 columns and 96063 nonzeros
Variable types: 0 continuous, 10000 integer (0 binary)
Coefficient statistics:
  Matrix range     [1e+00, 1e+00]
  Objective range  [6e+01, 5e+02]
  Bounds range     [1e+00, 1e+00]
  RHS range        [1e+00, 2e+01]
Found heuristic solution: objective 759.3206481
Presolve removed 1 rows and 3554 columns
Presolve time: 0.09s
Presolved: 25 rows, 6446 columns, 54780 nonzeros
Variable types: 0 continuous, 6446 integer (6446 binary)

Root relaxation: objective 4.112684e+02, 64 iterations, 0.01 seconds

    Nodes    |    Current Node    |     Objective Bounds      |     Work
 Expl Unexpl |  Obj  Depth IntInf | Incumbent    BestBd   Gap | It/Node Time

     0     0  411.26835    0    9  759.32065  411.26835  45.8%     -    0s
H    0     0                     426.1631622  411.26835  3.50%     -    0s
     0     0  413.93539    0    6  426.16316  413.93539  2.87%     -    0s
     0     0  415.12247    0    3  426.16316  415.12247  2.59%     -    0s
     0     0  415.13411    0    8  426.16316  415.13411  2.59%     -    0s
     0     0  415.23151    0    6  426.16316  415.23151  2.57%     -    0s
     0     0  415.23151    0    6  426.16316  415.23151  2.57%     -    0s
H    0     0                     418.7791860  415.23151  0.85%     -    0s
H    0     0                     416.4552753  415.23151  0.29%     -    0s
     0     0  415.23151    0    6  416.45528  415.23151  0.29%     -    0s

Explored 1 nodes (83 simplex iterations) in 0.16 seconds
Thread count was 8 (of 8 available processors)

Solution count 4: 416.455 418.779 426.163 759.321 

Optimal solution found (tolerance 1.00e-04)
Best objective 4.164552753311e+02, best bound 4.164552753311e+02, gap 0.0000%

Routes:
6 8 5 3 4 12 14 16 13 17 7 2 1
20 23 22 24 25 21 18 19
11 15 9 10

Distance: 416.455275331
Execution time:  4.053977  seconds
